448,173
649,613
764,662
963,794
504,753
536,511
563,424
593,285
317,142
148,322
201,406
741,406
738,424
766,433
829,-50
789,193
441,528
141,406
178,327
482,470
622,415
718,643
737,761
746,820
810,805
841,325
690,347
681,46
450,-48
536,301
561,406
716,454
769,527
1066,345
751,-38
999,88
1137,258
